output ["selection = ",showDzn(selection),";\n","admission = ",showDzn(admission),";\n","room = ",showDzn(room),";\n","ot = ",showDzn(ot),";\n","room_admission = \n",let {array [int] of string: X_INTRODUCED_40952_ = [], array [int] of string: X_INTRODUCED_40953_ = [], array [int,int] of string: X_INTRODUCED_40954_ = [(X_INTRODUCED_40950_, X_INTRODUCED_40951_) : showDzn(room_admission[X_INTRODUCED_40950_,X_INTRODUCED_40951_]) | X_INTRODUCED_40950_ in index_set_1of2(room_admission), X_INTRODUCED_40951_ in index_set_2of2(room_admission)]} in (show2d_indexed(X_INTRODUCED_40952_,X_INTRODUCED_40953_,X_INTRODUCED_40954_)),";\n"];
set of int: P = 1..96;
set of int: R = 1..12;
array [1..1152] of int: X_INTRODUCED_1293_;
array [R,P] of int: room_admission = array2d(1..12,1..96,X_INTRODUCED_1293_);
array [P] of int: ot;
array [P] of int: room;
array [P] of int: admission;
array [P] of bool: selection;
